(set-info :source |printed by MathSAT|)
(declare-fun call_synapse.ite18.next () Int)
(declare-fun call_synapse.ite2.next () Int)
(declare-fun call_synapse.valid_s () Int)
(declare-fun call_synapse.ite9.next () Int)
(declare-fun call_synapse.flby () Int)
(declare-fun call_synapse.ite13.next () Int)
(declare-fun call_synapse.mem_init_s () Int)
(declare-fun call_synapse.ite14.next () Int)
(declare-fun call_synapse.flby3 () Int)
(declare-fun dirty_s.next () Int)
(declare-fun call_excludes3.excludes.next () Bool)
(declare-fun call_excludes3.excludes () Bool)
(declare-fun dirty_s () Int)
(declare-fun call_synapse.garde_s2.next () Bool)
(declare-fun call_Sofar.Sofar.next () Bool)
(declare-fun _OK_.next () Bool)
(declare-fun invalid_s.next () Int)
(declare-fun call_synapse.ite16.next () Int)
(declare-fun param_e_s3.next () Bool)
(declare-fun call_synapse.ite5.next () Int)
(declare-fun _OK_ () Bool)
(declare-fun call_synapse.flby.next () Int)
(declare-fun mem_init_s () Int)
(declare-fun call_synapse.flby2.next () Int)
(declare-fun call_synapse.ite8 () Int)
(declare-fun call_synapse.invalid_s.next () Int)
(declare-fun flby.next () Bool)
(declare-fun call_synapse.ite14 () Int)
(declare-fun call_synapse.ite16 () Int)
(declare-fun param_e_s2 () Bool)
(declare-fun call_synapse.ite4 () Int)
(declare-fun param_e_s1 () Bool)
(declare-fun call_synapse.ite6 () Int)
(declare-fun call_synapse.ite7 () Int)
(declare-fun call_synapse.ite13 () Int)
(declare-fun mem_init_s.next () Int)
(declare-fun call_synapse.flby4.next () Int)
(declare-fun call_synapse.dirty_s () Int)
(declare-fun call_synapse.ite11.next () Int)
(declare-fun call_synapse.ite12.next () Int)
(declare-fun call_synapse.ite10 () Int)
(declare-fun invalid_s () Int)
(declare-fun call_synapse.flby4 () Int)
(declare-fun call_synapse.ite17.next () Int)
(declare-fun call_synapse.ite6.next () Int)
(declare-fun call_synapse.ite18 () Int)
(declare-fun call_synapse.ite17 () Int)
(declare-fun call_synapse.garde_s1.next () Bool)
(declare-fun env () Bool)
(declare-fun valid_s.next () Int)
(declare-fun call_synapse.ite11 () Int)
(declare-fun call_synapse.ite () Int)
(declare-fun env.next () Bool)
(declare-fun param_e_s1.next () Bool)
(declare-fun call_synapse.ite10.next () Int)
(declare-fun call_synapse.dirty_s.next () Int)
(declare-fun call_synapse.flby3.next () Int)
(declare-fun call_synapse.flby2 () Int)
(declare-fun call_synapse.ite2 () Int)
(declare-fun call_synapse.ite8.next () Int)
(declare-fun call_Sofar.Sofar () Bool)
(declare-fun valid_s () Int)
(declare-fun call_synapse.ite7.next () Int)
(declare-fun call_synapse.ite3.next () Int)
(declare-fun call_synapse.ite15.next () Int)
(declare-fun call_synapse.mem_init_s.next () Int)
(declare-fun param_init_invalid_s.next () Int)
(declare-fun param_e_s2.next () Bool)
(declare-fun param_e_s3 () Bool)
(declare-fun call_synapse.ite4.next () Int)
(declare-fun call_Sofar.flby.next () Bool)
(declare-fun call_Sofar.flby () Bool)
(declare-fun call_synapse.garde_s3.next () Bool)
(declare-fun call_synapse.ite5 () Int)
(declare-fun call_synapse.ite.next () Int)
(declare-fun call_synapse.ite12 () Int)
(declare-fun call_synapse.invalid_s () Int)
(declare-fun call_synapse.valid_s.next () Int)
(declare-fun flby () Bool)
(define-fun .def_808 () Bool (= call_Sofar.flby.next call_Sofar.Sofar.next))
(define-fun .def_803 () Bool (and param_e_s3.next param_e_s2.next))
(define-fun .def_800 () Bool (and param_e_s1.next param_e_s2.next))
(define-fun .def_801 () Bool (and param_e_s1.next .def_800))
(define-fun .def_802 () Bool (and param_e_s3.next .def_801))
(define-fun .def_804 () Bool (or .def_802 .def_803))
(define-fun .def_805 () Bool (not .def_804))
(define-fun .def_806 () Bool (= call_excludes3.excludes.next .def_805))
(define-fun .def_798 () Bool (= call_synapse.flby.next call_synapse.mem_init_s.next))
(define-fun .def_796 () Bool (= call_synapse.flby4.next call_synapse.dirty_s.next))
(define-fun .def_794 () Bool (= call_synapse.flby3.next call_synapse.valid_s.next))
(define-fun .def_792 () Bool (= call_synapse.flby2.next call_synapse.invalid_s.next))
(define-fun .def_788 () Bool (= call_synapse.ite16.next call_synapse.ite17.next))
(define-fun .def_789 () Bool (or param_e_s2.next .def_788))
(define-fun .def_785 () Bool (= call_synapse.ite14.next call_synapse.ite17.next))
(define-fun .def_776 () Bool (not param_e_s2.next))
(define-fun .def_786 () Bool (or .def_776 .def_785))
(define-fun .def_782 () Bool (= call_synapse.ite10.next call_synapse.ite11.next))
(define-fun .def_783 () Bool (or param_e_s2.next .def_782))
(define-fun .def_779 () Bool (= call_synapse.ite8.next call_synapse.ite11.next))
(define-fun .def_780 () Bool (or .def_776 .def_779))
(define-fun .def_775 () Bool (= call_synapse.ite2.next call_synapse.ite5.next))
(define-fun .def_777 () Bool (or .def_775 .def_776))
(define-fun .def_772 () Bool (= call_synapse.ite4.next call_synapse.ite5.next))
(define-fun .def_774 () Bool (or .def_772 param_e_s2.next))
(define-fun .def_778 () Bool (and .def_774 .def_777))
(define-fun .def_781 () Bool (and .def_778 .def_780))
(define-fun .def_784 () Bool (and .def_781 .def_783))
(define-fun .def_787 () Bool (and .def_784 .def_786))
(define-fun .def_790 () Bool (and .def_787 .def_789))
(define-fun .def_768 () Bool (= call_synapse.ite18.next call_synapse.ite17.next))
(define-fun .def_769 () Bool (or param_e_s1.next .def_768))
(define-fun .def_764 () Bool (= call_synapse.ite13.next call_synapse.ite18.next))
(define-fun .def_754 () Bool (not param_e_s1.next))
(define-fun .def_765 () Bool (or .def_754 .def_764))
(define-fun .def_761 () Bool (= call_synapse.ite12.next call_synapse.ite11.next))
(define-fun .def_762 () Bool (or param_e_s1.next .def_761))
(define-fun .def_757 () Bool (= call_synapse.ite7.next call_synapse.ite12.next))
(define-fun .def_758 () Bool (or .def_754 .def_757))
(define-fun .def_753 () Bool (= call_synapse.ite.next call_synapse.ite6.next))
(define-fun .def_755 () Bool (or .def_753 .def_754))
(define-fun .def_750 () Bool (= call_synapse.ite6.next call_synapse.ite5.next))
(define-fun .def_752 () Bool (or .def_750 param_e_s1.next))
(define-fun .def_756 () Bool (and .def_752 .def_755))
(define-fun .def_759 () Bool (and .def_756 .def_758))
(define-fun .def_763 () Bool (and .def_759 .def_762))
(define-fun .def_766 () Bool (and .def_763 .def_765))
(define-fun .def_770 () Bool (and .def_766 .def_769))
(define-fun .def_747 () Bool (= env.next call_Sofar.Sofar.next))
(define-fun .def_744 () Bool (= mem_init_s.next call_synapse.mem_init_s.next))
(define-fun .def_740 () Bool (= dirty_s.next call_synapse.dirty_s.next))
(define-fun .def_737 () Bool (= valid_s.next call_synapse.valid_s.next))
(define-fun .def_734 () Bool (= invalid_s.next call_synapse.invalid_s.next))
(define-fun .def_730 () Bool (not env.next))
(define-fun .def_731 () Bool (or flby.next .def_730))
(define-fun .def_732 () Bool (= _OK_.next .def_731))
(define-fun .def_735 () Bool (and .def_732 .def_734))
(define-fun .def_738 () Bool (and .def_735 .def_737))
(define-fun .def_741 () Bool (and .def_738 .def_740))
(define-fun .def_745 () Bool (and .def_741 .def_744))
(define-fun .def_748 () Bool (and .def_745 .def_747))
(define-fun .def_771 () Bool (and .def_748 .def_770))
(define-fun .def_791 () Bool (and .def_771 .def_790))
(define-fun .def_793 () Bool (and .def_791 .def_792))
(define-fun .def_795 () Bool (and .def_793 .def_794))
(define-fun .def_797 () Bool (and .def_795 .def_796))
(define-fun .def_799 () Bool (and .def_797 .def_798))
(define-fun .def_807 () Bool (and .def_799 .def_806))
(define-fun .def_809 () Bool (and .def_807 .def_808))
(define-fun .def_562 () Bool (= call_Sofar.flby call_Sofar.Sofar))
(define-fun .def_557 () Bool (and param_e_s3 param_e_s2))
(define-fun .def_554 () Bool (and param_e_s1 param_e_s2))
(define-fun .def_555 () Bool (and param_e_s1 .def_554))
(define-fun .def_556 () Bool (and param_e_s3 .def_555))
(define-fun .def_558 () Bool (or .def_556 .def_557))
(define-fun .def_559 () Bool (not .def_558))
(define-fun .def_560 () Bool (= call_excludes3.excludes .def_559))
(define-fun .def_552 () Bool (= call_synapse.flby call_synapse.mem_init_s))
(define-fun .def_550 () Bool (= call_synapse.flby4 call_synapse.dirty_s))
(define-fun .def_548 () Bool (= call_synapse.flby3 call_synapse.valid_s))
(define-fun .def_546 () Bool (= call_synapse.flby2 call_synapse.invalid_s))
(define-fun .def_542 () Bool (= call_synapse.ite16 call_synapse.ite17))
(define-fun .def_543 () Bool (or param_e_s2 .def_542))
(define-fun .def_539 () Bool (= call_synapse.ite14 call_synapse.ite17))
(define-fun .def_530 () Bool (not param_e_s2))
(define-fun .def_540 () Bool (or .def_530 .def_539))
(define-fun .def_536 () Bool (= call_synapse.ite10 call_synapse.ite11))
(define-fun .def_537 () Bool (or param_e_s2 .def_536))
(define-fun .def_533 () Bool (= call_synapse.ite8 call_synapse.ite11))
(define-fun .def_534 () Bool (or .def_530 .def_533))
(define-fun .def_529 () Bool (= call_synapse.ite5 call_synapse.ite2))
(define-fun .def_531 () Bool (or .def_529 .def_530))
(define-fun .def_525 () Bool (= call_synapse.ite4 call_synapse.ite5))
(define-fun .def_527 () Bool (or .def_525 param_e_s2))
(define-fun .def_532 () Bool (and .def_527 .def_531))
(define-fun .def_535 () Bool (and .def_532 .def_534))
(define-fun .def_538 () Bool (and .def_535 .def_537))
(define-fun .def_541 () Bool (and .def_538 .def_540))
(define-fun .def_544 () Bool (and .def_541 .def_543))
(define-fun .def_521 () Bool (= call_synapse.ite18 call_synapse.ite17))
(define-fun .def_522 () Bool (or param_e_s1 .def_521))
(define-fun .def_517 () Bool (= call_synapse.ite13 call_synapse.ite18))
(define-fun .def_504 () Bool (not param_e_s1))
(define-fun .def_518 () Bool (or .def_504 .def_517))
(define-fun .def_513 () Bool (= call_synapse.ite12 call_synapse.ite11))
(define-fun .def_514 () Bool (or param_e_s1 .def_513))
(define-fun .def_509 () Bool (= call_synapse.ite7 call_synapse.ite12))
(define-fun .def_510 () Bool (or .def_504 .def_509))
(define-fun .def_503 () Bool (= call_synapse.ite6 call_synapse.ite))
(define-fun .def_505 () Bool (or .def_503 .def_504))
(define-fun .def_499 () Bool (= call_synapse.ite6 call_synapse.ite5))
(define-fun .def_501 () Bool (or .def_499 param_e_s1))
(define-fun .def_506 () Bool (and .def_501 .def_505))
(define-fun .def_511 () Bool (and .def_506 .def_510))
(define-fun .def_515 () Bool (and .def_511 .def_514))
(define-fun .def_519 () Bool (and .def_515 .def_518))
(define-fun .def_523 () Bool (and .def_519 .def_522))
(define-fun .def_495 () Bool (= env call_Sofar.Sofar))
(define-fun .def_492 () Bool (= call_synapse.mem_init_s mem_init_s))
(define-fun .def_489 () Bool (= dirty_s call_synapse.dirty_s))
(define-fun .def_485 () Bool (= valid_s call_synapse.valid_s))
(define-fun .def_481 () Bool (= invalid_s call_synapse.invalid_s))
(define-fun .def_476 () Bool (not env))
(define-fun .def_477 () Bool (or flby .def_476))
(define-fun .def_478 () Bool (= _OK_ .def_477))
(define-fun .def_482 () Bool (and .def_478 .def_481))
(define-fun .def_486 () Bool (and .def_482 .def_485))
(define-fun .def_490 () Bool (and .def_486 .def_489))
(define-fun .def_493 () Bool (and .def_490 .def_492))
(define-fun .def_496 () Bool (and .def_493 .def_495))
(define-fun .def_524 () Bool (and .def_496 .def_523))
(define-fun .def_545 () Bool (and .def_524 .def_544))
(define-fun .def_547 () Bool (and .def_545 .def_546))
(define-fun .def_549 () Bool (and .def_547 .def_548))
(define-fun .def_551 () Bool (and .def_549 .def_550))
(define-fun .def_553 () Bool (and .def_551 .def_552))
(define-fun .def_561 () Bool (and .def_553 .def_560))
(define-fun .def_563 () Bool (and .def_561 .def_562))
(define-fun .def_810 () Bool (and .def_563 .def_809))
(define-fun .def_721 () Bool (<= 0 param_init_invalid_s.next))
(define-fun .def_723 () Bool (and .def_721 call_excludes3.excludes.next))
(define-fun .def_724 () Bool (and call_Sofar.Sofar .def_723))
(define-fun .def_726 () Bool (= .def_724 call_Sofar.flby.next))
(define-fun .def_718 () Bool (= call_synapse.ite18.next call_synapse.flby4.next))
(define-fun .def_714 () Bool (= call_synapse.ite12.next call_synapse.flby3.next))
(define-fun .def_710 () Bool (= call_synapse.ite6.next call_synapse.flby2.next))
(define-fun .def_706 () Bool (= call_synapse.mem_init_s call_synapse.flby.next))
(define-fun .def_684 () Bool (<= 1 call_synapse.invalid_s))
(define-fun .def_702 () Bool (= call_synapse.garde_s3.next .def_684))
(define-fun .def_699 () Bool (= call_synapse.ite9.next 0))
(define-fun .def_648 () Bool (not call_synapse.garde_s3.next))
(define-fun .def_700 () Bool (or .def_648 .def_699))
(define-fun .def_697 () Bool (= call_synapse.ite15.next 1))
(define-fun .def_698 () Bool (or .def_648 .def_697))
(define-fun .def_701 () Bool (and .def_698 .def_700))
(define-fun .def_703 () Bool (and .def_701 .def_702))
(define-fun .def_693 () Bool (<= 1 call_synapse.valid_s))
(define-fun .def_694 () Bool (= call_synapse.garde_s2.next .def_693))
(define-fun .def_690 () Bool (= call_synapse.ite8.next 0))
(define-fun .def_633 () Bool (not call_synapse.garde_s2.next))
(define-fun .def_691 () Bool (or .def_633 .def_690))
(define-fun .def_688 () Bool (= call_synapse.ite14.next 1))
(define-fun .def_689 () Bool (or .def_633 .def_688))
(define-fun .def_692 () Bool (and .def_689 .def_691))
(define-fun .def_695 () Bool (and .def_692 .def_694))
(define-fun .def_685 () Bool (= call_synapse.garde_s1.next .def_684))
(define-fun .def_682 () Bool (= call_synapse.ite13.next 0))
(define-fun .def_620 () Bool (not call_synapse.garde_s1.next))
(define-fun .def_683 () Bool (or .def_620 .def_682))
(define-fun .def_686 () Bool (and .def_683 .def_685))
(define-fun .def_678 () Bool (= call_synapse.dirty_s call_synapse.ite15.next))
(define-fun .def_679 () Bool (or call_synapse.garde_s3.next .def_678))
(define-fun .def_675 () Bool (= call_synapse.dirty_s call_synapse.ite13.next))
(define-fun .def_676 () Bool (or call_synapse.garde_s1.next .def_675))
(define-fun .def_672 () Bool (= call_synapse.dirty_s call_synapse.ite14.next))
(define-fun .def_673 () Bool (or call_synapse.garde_s2.next .def_672))
(define-fun .def_677 () Bool (and .def_673 .def_676))
(define-fun .def_680 () Bool (and .def_677 .def_679))
(define-fun .def_667 () Bool (= call_synapse.valid_s call_synapse.ite9.next))
(define-fun .def_668 () Bool (or call_synapse.garde_s3.next .def_667))
(define-fun .def_664 () Bool (= call_synapse.valid_s call_synapse.ite8.next))
(define-fun .def_665 () Bool (or call_synapse.garde_s2.next .def_664))
(define-fun .def_658 () Int (* (- 1) call_synapse.ite7.next))
(define-fun .def_659 () Int (+ call_synapse.valid_s .def_658))
(define-fun .def_660 () Bool (= .def_659 (- 1)))
(define-fun .def_661 () Bool (or .def_620 .def_660))
(define-fun .def_656 () Bool (= call_synapse.valid_s call_synapse.ite7.next))
(define-fun .def_657 () Bool (or call_synapse.garde_s1.next .def_656))
(define-fun .def_662 () Bool (and .def_657 .def_661))
(define-fun .def_666 () Bool (and .def_662 .def_665))
(define-fun .def_669 () Bool (and .def_666 .def_668))
(define-fun .def_651 () Bool (= call_synapse.invalid_s call_synapse.ite3.next))
(define-fun .def_652 () Bool (or call_synapse.garde_s3.next .def_651))
(define-fun .def_639 () Int (* (- 1) call_synapse.ite3.next))
(define-fun .def_643 () Int (+ call_synapse.dirty_s .def_639))
(define-fun .def_644 () Int (+ call_synapse.valid_s .def_643))
(define-fun .def_645 () Int (+ call_synapse.invalid_s .def_644))
(define-fun .def_646 () Bool (= .def_645 1))
(define-fun .def_649 () Bool (or .def_646 .def_648))
(define-fun .def_636 () Bool (= call_synapse.invalid_s call_synapse.ite2.next))
(define-fun .def_637 () Bool (or call_synapse.garde_s2.next .def_636))
(define-fun .def_624 () Int (* (- 1) call_synapse.ite2.next))
(define-fun .def_628 () Int (+ call_synapse.dirty_s .def_624))
(define-fun .def_629 () Int (+ call_synapse.valid_s .def_628))
(define-fun .def_630 () Int (+ call_synapse.invalid_s .def_629))
(define-fun .def_631 () Bool (= .def_630 1))
(define-fun .def_634 () Bool (or .def_631 .def_633))
(define-fun .def_614 () Int (* (- 1) call_synapse.ite.next))
(define-fun .def_617 () Int (+ call_synapse.dirty_s .def_614))
(define-fun .def_618 () Int (+ call_synapse.invalid_s .def_617))
(define-fun .def_619 () Bool (= .def_618 0))
(define-fun .def_621 () Bool (or .def_619 .def_620))
(define-fun .def_611 () Bool (= call_synapse.invalid_s call_synapse.ite.next))
(define-fun .def_613 () Bool (or .def_611 call_synapse.garde_s1.next))
(define-fun .def_622 () Bool (and .def_613 .def_621))
(define-fun .def_635 () Bool (and .def_622 .def_634))
(define-fun .def_638 () Bool (and .def_635 .def_637))
(define-fun .def_650 () Bool (and .def_638 .def_649))
(define-fun .def_653 () Bool (and .def_650 .def_652))
(define-fun .def_596 () Int (* (- 1) dirty_s.next))
(define-fun .def_593 () Int (* (- 1) valid_s.next))
(define-fun .def_601 () Int (+ .def_593 .def_596))
(define-fun .def_591 () Int (* (- 1) invalid_s.next))
(define-fun .def_602 () Int (+ .def_591 .def_601))
(define-fun .def_603 () Int (+ dirty_s .def_602))
(define-fun .def_604 () Int (+ valid_s .def_603))
(define-fun .def_605 () Int (+ invalid_s .def_604))
(define-fun .def_606 () Bool (= .def_605 0))
(define-fun .def_608 () Bool (= .def_606 flby.next))
(define-fun .def_587 () Bool (= call_synapse.dirty_s call_synapse.ite16.next))
(define-fun .def_588 () Bool (or param_e_s3.next .def_587))
(define-fun .def_584 () Bool (= call_synapse.ite15.next call_synapse.ite16.next))
(define-fun .def_571 () Bool (not param_e_s3.next))
(define-fun .def_585 () Bool (or .def_571 .def_584))
(define-fun .def_579 () Bool (= call_synapse.valid_s call_synapse.ite10.next))
(define-fun .def_580 () Bool (or param_e_s3.next .def_579))
(define-fun .def_576 () Bool (= call_synapse.ite9.next call_synapse.ite10.next))
(define-fun .def_577 () Bool (or .def_571 .def_576))
(define-fun .def_570 () Bool (= call_synapse.ite4.next call_synapse.ite3.next))
(define-fun .def_572 () Bool (or .def_570 .def_571))
(define-fun .def_566 () Bool (= call_synapse.invalid_s call_synapse.ite4.next))
(define-fun .def_568 () Bool (or .def_566 param_e_s3.next))
(define-fun .def_573 () Bool (and .def_568 .def_572))
(define-fun .def_578 () Bool (and .def_573 .def_577))
(define-fun .def_581 () Bool (and .def_578 .def_580))
(define-fun .def_586 () Bool (and .def_581 .def_585))
(define-fun .def_589 () Bool (and .def_586 .def_588))
(define-fun .def_609 () Bool (and .def_589 .def_608))
(define-fun .def_654 () Bool (and .def_609 .def_653))
(define-fun .def_670 () Bool (and .def_654 .def_669))
(define-fun .def_681 () Bool (and .def_670 .def_680))
(define-fun .def_687 () Bool (and .def_681 .def_686))
(define-fun .def_696 () Bool (and .def_687 .def_695))
(define-fun .def_704 () Bool (and .def_696 .def_703))
(define-fun .def_707 () Bool (and .def_704 .def_706))
(define-fun .def_711 () Bool (and .def_707 .def_710))
(define-fun .def_715 () Bool (and .def_711 .def_714))
(define-fun .def_719 () Bool (and .def_715 .def_718))
(define-fun .def_727 () Bool (and .def_719 .def_726))
(define-fun .def_811 () Bool (and .def_727 .def_810))
(assert .def_811)
